50

100 1 332
99 2 506
98 28 411
96 18 465
94 16 336
92 12 428
90 15 391
89 27 386
89 17 469
89 27 588
87 11 355
86 22 341
81 11 243
80 7 251
78 22 549
77 22 582
74 7 465
74 10 229
72 13 578
72 2 479
63 15 563
62 6 331
60 15 371
60 3 433
55 5 245
55 10 230
54 10 335
53 2 216
50 3 341
50 12 569
46 7 380
46 4 512
45 1 249
42 12 232
42 12 443
41 9 326
38 4 562
35 2 277
34 4 405
33 9 296
33 8 299
32 4 532
28 9 585
28 7 510
27 1 492
26 4 476
23 3 239
21 7 132
21 5 308
20 2 327
